Gurobi 12.0.3:   lim:time = 2000
Set parameter LogToConsole to value 1
  tech:outlev = 1
Set parameter InfUnbdInfo to value 1
Gurobi Optimizer version 12.0.3 build v12.0.3rc0 (win64 - Windows 11+.0 (26200.2))

CPU model: 12th Gen Intel(R) Core(TM) i7-12700, instruction set [SSE2|AVX|AVX2]
Thread count: 12 physical cores, 20 logical processors, using up to 20 threads

Non-default parameters:
TimeLimit  2000
InfUnbdInfo  1

Optimize a model with 65286 rows, 17516 columns and 432180 nonzeros
Model fingerprint: 0x6107faa2
Model has 10098 quadratic constraints
Model has 1156 general nonlinear constraints (2448 nonlinear terms)
Variable types: 7978 continuous, 9538 integer (0 binary)
Coefficient statistics:
  Matrix range     [1e+00, 1e+06]
  QMatrix range    [1e+00, 1e+00]
  QLMatrix range   [1e+00, 1e+01]
  Objective range  [3e+01, 5e+02]
  Bounds range     [1e+00, 1e+06]
  RHS range        [1e+00, 1e+06]
Presolve model has 1156 nlconstr
Added 1428 variables to disaggregate expressions.
Presolve added 7284 rows and 0 columns
Presolve removed 0 rows and 1224 columns
Presolve time: 3.21s
Presolved: 99124 rows, 26833 columns, 590238 nonzeros
Presolved model has 2244 SOS constraint(s)
Presolved model has 5610 bilinear constraint(s)

Solving non-convex MIQCP

Variable types: 16001 continuous, 10832 integer (10682 binary)

Deterministic concurrent LP optimizer: primal and dual simplex (primal and dual model)
Showing primal log only...

Root relaxation presolved: 80418 rows, 15588 columns, 569015 nonzeros


Root simplex log...

Iteration    Objective       Primal Inf.    Dual Inf.      Time
       0    0.0000000e+00   5.089232e+03   7.628240e+08     14s
    3440    3.2000000e+01   0.000000e+00   0.000000e+00     14s
    3440    3.2000000e+01   0.000000e+00   0.000000e+00     14s

Use crossover to convert LP symmetric solution to basic solution...
Concurrent spin time: 0.04s

Solved with dual simplex

Root relaxation: objective 3.200000e+01, 1166 iterations, 1.17 seconds (0.52 work units)
Total elapsed time = 14.18s (DegenMoves)
Total elapsed time = 15.53s (DegenMoves)

    Nodes    |    Current Node    |     Objective Bounds      |     Work
 Expl Unexpl |  Obj  Depth IntInf | Incumbent    BestBd   Gap | It/Node Time

     0     0   32.00000    0  305          -   32.00000      -     -   16s
     0     0   32.00000    0  301          -   32.00000      -     -   16s
     0     0   32.00000    0  883          -   32.00000      -     -   24s
     0     0   32.00000    0  856          -   32.00000      -     -   24s
     0     0   32.00000    0 1240          -   32.00000      -     -   32s
     0     0   32.00000    0  244          -   32.00000      -     -   53s
     0     0   32.00000    0  244          -   32.00000      -     -   53s
     0     0   32.00000    0  239          -   32.00000      -     -   56s
     0     0   32.00000    0  174          -   32.00000      -     -   65s
     0     0   32.00000    0  174          -   32.00000      -     -   66s
     0     0   32.00000    0  197          -   32.00000      -     -   69s
     0     0   32.00000    0  197          -   32.00000      -     -   70s
     0     0   32.00000    0  197          -   32.00000      -     -   70s
     0     0   32.00000    0  197          -   32.00000      -     -   71s
     0     0   32.00000    0  197          -   32.00000      -     -   71s
     0     0   32.00000    0  197          -   32.00000      -     -   72s
     0     0   32.00000    0  269          -   32.00000      -     -   81s
     0     0   32.00000    0  273          -   32.00000      -     -   82s
     0     0   32.00000    0  274          -   32.00000      -     -   82s
     0     0   32.00000    0  274          -   32.00000      -     -   83s
     0     0   32.00000    0  286          -   32.00000      -     -  101s
     0     2   32.00000    0  298          -   32.00000      -     -  112s
     7     8 infeasible    3               -   32.00000      -   503  122s
    15    14   32.00000    4 1804          -   32.00000      -  1736  129s
    23    26   32.00000    5 1630          -   32.00000      -  2962  142s
    35    74   32.00000    6 1581          -   32.00000      -  3620  157s
    98    98 infeasible   10               -   32.00000      -  1987  181s
   128   225   32.00000   11 1614          -   32.00000      -  1712  231s
   354   365   32.00000   11  267          -   32.00000      -  1187  278s
   522   675   32.00000   19 2003          -   32.00000      -  1480  344s
   909  1243   32.00000   22 1117          -   32.00000      -  1367  452s
  1595  2064   32.00000   51 1079          -   32.00000      -  1333  566s
  2623  2665   32.00000   95  903          -   32.00000      -  1104  687s
  3540  3247   32.00000  116  802          -   32.00000      -   999  810s
  4422  3832   32.00000  161  669          -   32.00000      -   942  921s
  5333  4317   32.00000  205  579          -   32.00000      -   889 1059s
  6063  4318   32.00000  155 2749          -   32.00000      -   875 1104s
  6064  4319   94.00000   35 2749          -   32.00000      -   874 1105s
  6065  4319   64.00000  197   76          -   32.00000      -   874 1111s
  6067  4321   32.00000   54  387          -   32.00000      -   874 1119s
  6068  4321   32.00000  154   79          -   32.00000      -   874 1135s
  6070  4323   32.00003  122   90          -   32.00000      -   874 1159s
  6071  4323   32.00000   51  606          -   32.00000      -   873 1166s
  6072  4324   64.00000   81   96          -   32.00000      -   873 1178s
  6073  4325   32.00000  104  916          -   32.00000      -   873 1183s
  6074  4325   32.00000  146   84          -   32.00000      -   873 1193s
  6075  4326   32.00013  217  643          -   32.00000      -   873 1195s
  6076  4327   32.00000  131   95          -   32.00000      -   873 1204s
  6077  4327   32.00000   59  267          -   32.00000      -   873 1208s
  6078  4328   32.00005  114   94          -   32.00000      -   872 1219s
  6079  4329   32.00000   52  597          -   32.00000      -   872 1223s
  6080  4329   64.00000  163  110          -   32.00000      -   872 1235s
  6082  4331   32.00000   69   84          -   32.00000      -   872 1246s
  6084  4332   32.00000   97   87          -   32.00000      -   871 1261s
  6085  4333   32.00000   23   87          -   32.00000      -   871 1267s
  6086  4333   32.00000   43   87          -   32.00000      -   871 1271s
  6087  4337   32.00000   13  162          -   32.00000      -   898 1289s
  6089  4339   94.00000   14  161          -   32.00000      -   898 1292s
  6093  4345   94.00000   15 1132          -   32.00000      -   898 1321s
  6100  4354   94.00000   16  805          -   32.00000      -   900 1335s
  6112  4385   94.00000   17  805          -   32.00000      -   901 1360s
  6155  4383   94.00000   19  947          -   32.00000      -   899 1397s
H 6160  4164                    7446.0000000   32.00000   100%   898 1397s
H 6169  3986                    6820.0000000   32.00000   100%   905 1433s
H 6169  3790                    6664.0000000   32.00000   100%   905 1433s
H 6171  3603                    5882.0000000   32.00000  99.5%   904 1433s
  6200  3616   94.00000   20  934 5882.00000   32.00000  99.5%   908 1467s
H 6225  3459                    5726.0000000   32.00000  99.4%   910 1488s
H 6227  3291                    5413.0000000   32.00000  99.4%   910 1488s
H 6232  3130                    4944.0000000   32.00000  99.4%   909 1488s
  6256  3158   94.00000   22  932 4944.00000   32.00000  99.4%   910 1503s
H 6302  3020                    4756.0000000   32.00000  99.3%   907 1517s
H 6302  2876                     852.0000000   32.00000  96.2%   907 1517s
H 6314  2736                     790.0000000   32.00000  95.9%   905 1517s
  6340  2764   94.00000   25  895  790.00000   32.00000  95.9%   903 1542s
H 6387  2627                     758.0000000   32.00000  95.8%   900 1561s
H 6387  2503                     476.0000000   32.00000  93.3%   900 1561s
  6404  2557   94.00000   26  893  476.00000   32.00000  93.3%   898 1577s
  6482  2606   94.00000   29  890  476.00000   32.00000  93.3%   890 1596s
H 6549  2467                     444.0000000   32.00000  92.8%   884 1596s
  6569  2527   94.00000   30  869  444.00000   32.00000  92.8%   881 1610s
H 6656  2442                     412.0000000   32.00000  92.2%   871 1629s
H 6658  2337                     382.0000000   32.00000  91.6%   871 1629s
  6716  2377   94.00000   33  854  382.00000   32.00000  91.6%   865 1646s
H 6795  2260                     350.0000000   32.00000  90.9%   856 1659s
H 6797  2164                     320.0000000   32.00000  90.0%   856 1659s
H 6801  2072                     288.0000000   32.00000  88.9%   855 1659s
  6807  2128   94.00000   35  866  288.00000   32.00000  88.9%   855 1684s
  6881  2157   94.00000   36  841  288.00000   32.00000  88.9%   847 1702s
  6956  2180   94.00000   37  873  288.00000   32.00000  88.9%   839 1712s
  7027  2219   94.00000   39  851  288.00000   32.00000  88.9%   831 1724s
  7099  2262   94.00000   40  851  288.00000   32.00000  88.9%   824 1745s
  7177  2307   94.00000   41  850  288.00000   32.00000  88.9%   816 1765s
  7258  2344 infeasible   42       288.00000   32.00000  88.9%   808 1781s
  7345  2386   94.00000   44  845  288.00000   32.00000  88.9%   800 1794s
  7443  2426   94.00000   45  845  288.00000   32.00000  88.9%   790 1816s
  7538  2471   94.00000   46  837  288.00000   32.00000  88.9%   782 1837s
  7637  2474   94.00000   47  838  288.00000   32.00000  88.9%   773 1852s
  7696  2519   94.00000   48  817  288.00000   32.00000  88.9%   767 1867s
  7795  2578   94.00000   49  858  288.00000   32.00000  88.9%   759 1891s
  7914  2622   94.00000   50  832  288.00000   32.00000  88.9%   749 1907s
  8017  2675   94.00000   53  830  288.00000   32.00000  88.9%   740 1925s
  8127  2715   94.00000   54  822  288.00000   32.00000  88.9%   732 1947s
  8243  2753   94.00000   57  817  288.00000   32.00000  88.9%   723 1965s
  8355  2804   94.00000   58  806  288.00000   32.00000  88.9%   716 1983s
  8479  2855   96.04348   60  816  288.00000   32.00000  88.9%   708 2000s

Cutting planes:
  Learned: 1
  Gomory: 6
  Lift-and-project: 2
  Cover: 167
  Implied bound: 26
  Projected implied bound: 2
  Clique: 8
  MIR: 225
  StrongCG: 11
  Flow cover: 427
  GUB cover: 3
  Zero half: 371
  RLT: 140
  Relax-and-lift: 631
  BQP: 1
  PSD: 2

Explored 8603 nodes (6081208 simplex iterations) in 2000.31 seconds (638.22 work units)
Thread count was 20 (of 20 available processors)

Solution count 10: 288 320 350 ... 852

Time limit reached
Best objective 2.880000000000e+02, best bound 3.200000000000e+01, gap 88.8889%

AMPL MP initial flat model has 15204 variables (102 integer, 9424 binary);
Objectives: 1 linear; 
Constraints:  64130 linear; 12410 quadratic;

AMPL MP final model has 17516 variables (126 integer, 9424 binary);
Objectives: 1 linear; 
Constraints:  65286 linear; 12410 quadratic;


Gurobi 12.0.3: time limit, feasible solution; objective 288
6.08121e+06 simplex iterations
8603 branching nodes
absmipgap=256, relmipgap=0.888889
lp, wp, hp: begin
1: 11.000000 7.000000 1.000000
2: 11.000000 7.000000 1.000000
3: 11.000000 7.000000 1.000000
4: 11.000000 7.000000 1.000000
5: 11.000000 7.000000 1.000000
6: 11.000000 7.000000 1.000000
7: 11.000000 7.000000 1.000000
8: 11.000000 7.000000 1.000000
9: 11.000000 7.000000 1.000000
10: 11.000000 7.000000 1.000000
11: 11.000000 7.000000 1.000000
12: 11.000000 7.000000 1.000000
13: 7.700000 7.700000 4.600000
14: 7.700000 7.700000 4.600000
15: 7.700000 7.700000 4.600000
16: 7.700000 7.700000 4.600000
17: 7.700000 7.700000 4.600000
18: 7.700000 7.700000 4.600000
19: 7.700000 7.700000 4.600000
20: 7.700000 7.700000 4.600000
21: 7.700000 7.700000 4.600000
22: 7.700000 7.700000 4.600000
23: 7.700000 7.700000 4.600000
24: 7.700000 7.700000 4.600000
25: 7.100000 4.100000 1.700000
26: 7.100000 4.100000 1.700000
27: 7.100000 4.100000 1.700000
28: 7.100000 4.100000 1.700000
29: 7.100000 4.100000 1.700000
30: 7.100000 4.100000 1.700000
31: 7.100000 4.100000 1.700000
32: 7.100000 4.100000 1.700000
33: 7.100000 4.100000 1.700000
34: 7.100000 4.100000 1.700000
lp, wp, hp: end
LB, WB, HB: begin
1: 28.000000 15.000000 15.000000
2: 28.000000 15.000000 15.000000
3: 28.000000 15.000000 15.000000
4: 28.000000 15.000000 15.000000
5: 28.000000 15.000000 15.000000
6: 28.000000 15.000000 15.000000
7: 28.000000 15.000000 15.000000
8: 28.000000 15.000000 15.000000
9: 28.000000 15.000000 15.000000
10: 28.000000 15.000000 15.000000
11: 42.000000 32.000000 26.000000
12: 42.000000 32.000000 26.000000
13: 42.000000 32.000000 26.000000
14: 42.000000 32.000000 26.000000
15: 42.000000 32.000000 26.000000
16: 42.000000 32.000000 26.000000
17: 42.000000 32.000000 26.000000
18: 42.000000 32.000000 26.000000
19: 42.000000 32.000000 26.000000
20: 42.000000 32.000000 26.000000
21: 45.700000 45.700000 40.600000
22: 45.700000 45.700000 40.600000
23: 45.700000 45.700000 40.600000
24: 45.700000 45.700000 40.600000
25: 45.700000 45.700000 40.600000
26: 45.700000 45.700000 40.600000
27: 45.700000 45.700000 40.600000
28: 45.700000 45.700000 40.600000
29: 45.700000 45.700000 40.600000
30: 45.700000 45.700000 40.600000
31: 61.000000 46.000000 61.000000
32: 61.000000 46.000000 61.000000
33: 61.000000 46.000000 61.000000
34: 61.000000 46.000000 61.000000
35: 61.000000 46.000000 61.000000
36: 61.000000 46.000000 61.000000
37: 61.000000 46.000000 61.000000
38: 61.000000 46.000000 61.000000
39: 61.000000 46.000000 61.000000
40: 61.000000 46.000000 61.000000
LB, WB, HB: end
l_px, l_py, w_px, w_py: begin
1: 0 1 1 0
2: 1 0 0 1
3: 1 0 0 1
4: 1 0 0 1
5: 1 0 0 1
6: 1 0 0 1
7: 0 1 1 0
8: 1 0 0 1
9: 1 0 0 1
10: 0 1 1 0
11: 1 0 0 1
12: 1 0 0 1
13: 0 1 1 0
14: 1 0 0 1
15: 1 0 0 1
16: 1 0 0 1
17: 0 1 1 0
18: 1 0 0 1
19: 1 0 0 1
20: 0 1 1 0
21: 1 0 0 1
22: 1 0 0 1
23: 0 1 1 0
24: 1 0 0 1
25: 1 0 0 1
26: 1 0 0 1
27: 1 0 0 1
28: 1 0 0 1
29: 1 0 0 1
30: 1 0 0 1
31: 1 0 0 1
32: 0 1 1 0
33: 0 1 1 0
34: 1 0 0 1
l_px, l_py, w_px, w_py: end
xp, yp, zp, on_floor: begin
1: 3.000000 0.000000 1.000000 0
2: 0.000000 0.000000 4.000000 0
3: 0.000000 0.000000 5.000000 0
4: 0.000000 0.000000 3.000000 0
5: 0.000000 0.000000 6.000000 0
6: 1.000000 8.000000 0.000000 1
7: 3.000000 0.000000 0.000000 1
8: 0.000000 0.000000 2.000000 0
9: 0.000000 0.000000 1.000000 0
10: 3.000000 0.000000 2.000000 0
11: 0.000000 0.000000 0.000000 1
12: 0.000000 0.000000 5.000000 0
13: 9.000000 0.000000 0.000000 1
14: 9.000000 7.000000 0.000000 1
15: 7.000000 0.000000 0.000000 1
16: 1.000000 7.000000 0.000000 1
17: 1.000000 0.000000 0.000000 1
18: 1.000000 7.000000 0.000000 1
19: 10.000000 0.000000 0.000000 1
20: 0.000000 0.000000 0.000000 1
21: 3.000000 7.000000 0.000000 1
22: 10.000000 0.000000 0.000000 1
23: 8.000000 0.000000 0.000000 1
24: 1.000000 7.000000 0.000000 1
25: 4.000000 8.000000 1.000000 0
26: 3.000000 2.000000 6.000000 0
27: 3.000000 0.000000 5.000000 0
28: 4.000000 8.000000 1.000000 0
29: 7.000000 8.000000 0.000000 1
30: 3.000000 0.000000 1.000000 0
31: 3.000000 0.000000 3.000000 0
32: 5.000000 0.000000 1.000000 0
33: 5.000000 0.000000 3.000000 0
34: 3.000000 0.000000 1.000000 0
xp, yp, zp, on_floor: end
product ->carton: begin
1 -> 7
2 -> 6
3 -> 4
4 -> 6
5 -> 4
6 -> 6
7 -> 7
8 -> 1
9 -> 1
10 -> 7
11 -> 1
12 -> 5
13 -> 2
14 -> 5
15 -> 8
16 -> 4
17 -> 2
18 -> 5
19 -> 7
20 -> 3
21 -> 10
22 -> 4
23 -> 3
24 -> 1
25 -> 8
26 -> 2
27 -> 8
28 -> 6
29 -> 2
30 -> 10
31 -> 5
32 -> 6
33 -> 7
34 -> 5
product ->carton: end
